c Output_time 26.03.2020 18:08:27_+0100 1585242507268675009
c ** Program information **
c program_name                          "QBRG_debug"
c version                               "0.3.20"
c date                                  "25.3.2020"
c gid_id                                "673970833836058123f633335630c185360d632e"
c author                                "Oliver Kullmann"
c url                                   "https://github.com/OKullmann/oklibrary/blob/master/Satisfiability/Transformers/Generators/Random/QBRG.cpp"
c ** Machine information **
c machine_name                          "chyna-Lenovo-G50-70"
c bogomips                              3791.08
c ** Compilation information **
c compiler_version                      "g++ 7.5.0"
c compilation_date                      "Mar_26_2020 11:16:30"
c compilation_options                   "--std=c++17 -pedantic -fmax-errors=5 -Wall -Wextra -g -D_GLIBCXX_DEBUG"
c NDEBUG                                0
c OPTIMIZE                              0
c ** Parameters **
c command-line                          "./QBRG_debug" "a40 40" "250*1,1|2-2,1" "" "1,t" ""
c output                                "QuBlRaGe_80_250_1585242507268524452.qdimacs"
c options                               "filtered,renamed"
c num_quantifier_blocks                 2
c  quantifier_blocks                    1:a1-40 2:e41-80
c num_clause-blocks                     1
c  clause-blocks                        250 * {1-40,1,1/2} | {41-80,1,1/2}
c num_e-seeds                           23+2=25
c  e-seeds                              1 0 1 0 3 80 2 40 0 40 1 250 2 1 1 1 1 2 2 2 1 1 2 1 1585242507268524017
p cnf 80 250
a 1 2 3 4 5 6 7 8 9 10 11 12 13 14 15 16 17 18 19 20 21 22 23 24 25 26 27 28 29 30 31 32 33 34 35 36 37 38 39 40 0
e 41 42 43 44 45 46 47 48 49 50 51 52 53 54 55 56 57 58 59 60 61 62 63 64 65 66 67 68 69 70 71 72 73 74 75 76 77 78 79 80 0
-7 -41 0
10 41 0
-15 -42 0
37 -42 0
-3 42 0
4 42 0
-6 42 0
-25 42 0
-1 -43 0
-11 -43 0
-14 -43 0
4 43 0
-8 43 0
-18 43 0
-7 -44 0
-21 -44 0
23 -44 0
-29 -44 0
17 44 0
31 44 0
7 -45 0
-13 -45 0
-24 -45 0
26 -45 0
-32 -45 0
4 45 0
26 45 0
-27 45 0
37 45 0
5 -46 0
-39 -46 0
-40 46 0
10 -47 0
-26 -47 0
-27 -47 0
9 47 0
26 47 0
29 47 0
-1 -48 0
32 -48 0
33 -48 0
-33 48 0
-34 48 0
4 -49 0
7 -49 0
-11 -49 0
-12 -49 0
-19 -49 0
-34 -49 0
34 -49 0
-1 -50 0
30 -50 0
31 -50 0
20 50 0
26 50 0
-28 50 0
-31 50 0
2 -51 0
-27 51 0
-28 51 0
33 51 0
-38 51 0
-40 51 0
-7 -52 0
11 -52 0
-12 -52 0
20 -52 0
-32 -52 0
-33 -52 0
38 -52 0
-11 52 0
-20 52 0
34 52 0
-5 -53 0
28 -53 0
31 -53 0
-9 53 0
-14 53 0
34 53 0
-40 53 0
-9 -54 0
25 -54 0
35 -54 0
22 54 0
-6 -55 0
-7 -55 0
29 -55 0
4 55 0
-23 55 0
28 55 0
-31 55 0
-2 -56 0
11 -56 0
17 -56 0
13 56 0
23 -57 0
-26 -57 0
-36 -57 0
-20 57 0
-24 57 0
32 -58 0
-39 -58 0
-11 58 0
16 58 0
-31 58 0
35 58 0
3 -59 0
5 -59 0
7 -59 0
-21 -59 0
34 -59 0
21 59 0
-25 59 0
22 -60 0
24 -60 0
22 60 0
-38 60 0
-9 61 0
13 61 0
24 61 0
-29 61 0
-6 -62 0
25 -62 0
-33 -62 0
-39 -62 0
-11 62 0
31 62 0
8 -63 0
-28 -63 0
28 -63 0
30 -63 0
-38 63 0
38 63 0
4 -64 0
19 -64 0
31 -64 0
35 -64 0
-37 -64 0
39 -64 0
36 64 0
-38 64 0
-9 -65 0
-15 -65 0
15 -65 0
16 -65 0
-19 -65 0
-35 -65 0
21 65 0
-14 66 0
18 66 0
-21 66 0
-35 66 0
-37 66 0
-1 -67 0
-3 -67 0
-31 -67 0
31 -67 0
-3 67 0
10 67 0
-30 67 0
-8 -68 0
-11 -68 0
34 -68 0
-40 -68 0
-9 68 0
-39 68 0
17 -69 0
28 -69 0
-35 -69 0
-7 69 0
-30 69 0
2 -70 0
-5 -70 0
22 -70 0
26 -70 0
13 70 0
32 70 0
-10 -71 0
-20 -71 0
23 -71 0
-30 -71 0
36 -71 0
-16 71 0
20 71 0
-37 71 0
4 -72 0
-8 -72 0
9 -72 0
24 -72 0
-34 -72 0
-2 72 0
-26 72 0
28 72 0
-33 72 0
35 72 0
-4 -73 0
-17 -73 0
-23 -73 0
-38 -73 0
-33 73 0
35 73 0
37 73 0
11 -74 0
-19 -74 0
17 74 0
19 74 0
-19 -75 0
19 -75 0
23 -75 0
27 -75 0
34 -75 0
-36 -75 0
-40 -75 0
8 75 0
-11 -76 0
-22 -76 0
32 -76 0
-9 76 0
-21 76 0
3 -77 0
18 -77 0
24 -77 0
-35 -77 0
37 -77 0
36 77 0
-10 -78 0
-40 -78 0
-15 78 0
16 78 0
-17 78 0
18 78 0
3 -79 0
8 -79 0
27 -79 0
-29 -79 0
-30 -79 0
34 -79 0
39 79 0
8 -80 0
-12 -80 0
15 -80 0
34 -80 0
3 80 0
8 80 0
9 80 0
10 80 0
-12 80 0
20 80 0
-29 80 0
30 80 0
